NAME: berlin52.opt.tour 
TYPE: TOUR 
DIMENSION: 52 
TOUR_SECTION 
4 
10 
29 
15 
40 
33 
19 
16 
9 
45 
46 
23 
13 
1 
7 
48 
8 
11 
0 
47 
51 
44 
36 
49 
26 
39 
20 
35 
30 
50 
27 
42 
14 
5 
17 
2 
37 
18 
32 
43 
25 
41 
22 
12 
28 
24 
34 
21 
38 
3 
6 
31 
